n_res = 4;
rc = [ 21, 28, 17, 12 ];
n_tasks = 30;
d = [ 7, 2, 4, 7, 9, 6, 3, 5, 9, 9, 6, 1, 1, 4, 3, 2, 3, 6, 6, 9, 6, 6, 3, 8, 5, 4, 1, 1, 5, 5 ];
rr = [| 21, 21, 21, 21, 21, 21, 21, 21, 21, 21, 21, 21, 21, 21, 21, 21, 21, 21, 21, 21, 21, 21, 21, 21, 21, 21, 21, 21, 21, 21
      | 28, 28, 28, 28, 28, 28, 28, 28, 28, 28, 28, 28, 28, 28, 28, 28, 28, 28, 28, 28, 28, 28, 28, 28, 28, 28, 28, 28, 28, 28
      | 17, 17, 17, 17, 17, 17, 17, 17, 17, 17, 17, 17, 17, 17, 17, 17, 17, 17, 17, 17, 17, 17, 17, 17, 17, 17, 17, 17, 17, 17
      | 12, 12, 12, 12, 12, 12, 12, 12, 12, 12, 12, 12, 12, 12, 12, 12, 12, 12, 12, 12, 12, 12, 12, 12, 12, 12, 12, 12, 12, 12|];
suc = [ { 10, 14, 18 },
       { 7, 9, 11 },
       { 4, 5, 6 },
       { 9 },
       { 17, 19, 22 },
       { 8, 24, 25 },
       { 20, 26, 28 },
       { 12 },
       { 19, 22 },
       { 11, 12 },
       { 13, 15 },
       { 20 },
       { 16, 22, 23 },
       { 19, 25, 29 },
       { 16 },
       { 27 },
       { 18, 21 },
       { 23 },
       { 20, 21, 28 },
       { 30 },
       { 26 },
       { 24, 29 },
       { 27, 29 },
       { 26 },
       { 27 },
       { 30 },
       { 28, 30 },
       {  },
       {  },
       {  } ];
